
Gurobi 13.0.1 (win64) logging started Thu Apr 23 11:20:28 2026

Set parameter LogFile to value "C:\Users\David\OneDrive\TAIDUC\0. DATASET. MATERIAL\Optimization , Simulation, Operation Research - Exercise & Problem\Procurement - Vendor quantity selection\debugs\logs\01_baseline_20260423_1120.log"

Gurobi 13.0.1 (win64) logging started Thu Apr 23 11:20:49 2026

Set parameter LogFile to value "C:\Users\David\OneDrive\TAIDUC\0. DATASET. MATERIAL\Optimization , Simulation, Operation Research - Exercise & Problem\Procurement - Vendor quantity selection\debugs\logs\01_baseline_20260423_1120.log"
